p edge 36 128
e 1 4
e 1 5
e 1 9
e 1 12
e 1 16
e 1 18
e 1 21
e 1 26
e 1 27
e 1 35
e 2 10
e 2 17
e 2 18
e 2 23
e 3 4
e 3 7
e 3 8
e 3 11
e 3 12
e 3 13
e 3 14
e 3 19
e 3 21
e 3 26
e 3 28
e 3 29
e 3 32
e 4 6
e 4 7
e 4 8
e 4 9
e 4 12
e 4 13
e 4 14
e 4 15
e 4 16
e 4 21
e 4 26
e 4 28
e 4 32
e 5 15
e 5 19
e 5 22
e 5 25
e 5 34
e 5 35
e 6 11
e 6 20
e 6 24
e 6 28
e 6 30
e 6 31
e 7 10
e 7 12
e 7 13
e 7 14
e 7 15
e 7 16
e 7 18
e 7 24
e 7 30
e 7 32
e 8 9
e 8 12
e 8 13
e 8 15
e 8 17
e 8 19
e 8 22
e 8 26
e 9 10
e 9 11
e 9 16
e 9 17
e 9 21
e 9 22
e 9 23
e 9 26
e 10 11
e 10 16
e 10 18
e 10 23
e 10 24
e 10 30
e 11 20
e 11 23
e 11 27
e 11 29
e 12 13
e 12 16
e 12 19
e 12 26
e 13 15
e 13 18
e 13 25
e 13 28
e 13 32
e 13 33
e 14 23
e 14 28
e 14 32
e 14 36
e 15 17
e 15 19
e 15 22
e 16 18
e 16 21
e 16 24
e 16 26
e 16 30
e 17 23
e 18 27
e 19 22
e 19 26
e 20 24
e 20 28
e 20 31
e 21 26
e 21 29
e 22 34
e 24 30
e 24 31
e 25 28
e 25 33
e 26 29
e 27 36
e 28 33
e 32 33
